sat
(
  (define-fun C3_VM10 () Int
    0)
  (define-fun C5_VM1 () Int
    0)
  (define-fun C2_VM9 () Int
    0)
  (define-fun C3_VM1 () Int
    0)
  (define-fun C3_VM12 () Int
    0)
  (define-fun C4_VM7 () Int
    0)
  (define-fun ProcProv9 () Int
    2)
  (define-fun ProcProv2 () Int
    2)
  (define-fun ProcProv5 () Int
    4)
  (define-fun C1_VM8 () Int
    1)
  (define-fun PriceProv11 () Int
    128)
  (define-fun StorageProv11 () Int
    2000)
  (define-fun C3_VM2 () Int
    0)
  (define-fun MemProv9 () Int
    3750)
  (define-fun PriceProv5 () Int
    379)
  (define-fun VM2Type () Int
    17)
  (define-fun ProcProv7 () Int
    4)
  (define-fun MemProv12 () Int
    3750)
  (define-fun C1_VM11 () Int
    0)
  (define-fun C2_VM2 () Int
    0)
  (define-fun C5_VM11 () Int
    0)
  (define-fun PriceProv9 () Int
    128)
  (define-fun C2_VM3 () Int
    1)
  (define-fun VM3Type () Int
    17)
  (define-fun C1_VM4 () Int
    0)
  (define-fun C3_VM7 () Int
    1)
  (define-fun StorageProv2 () Int
    2000)
  (define-fun ProcProv4 () Int
    4)
  (define-fun ProcProv8 () Int
    2)
  (define-fun C3_VM6 () Int
    0)
  (define-fun C4_VM11 () Int
    0)
  (define-fun VM6Type () Int
    17)
  (define-fun PriceProv4 () Int
    379)
  (define-fun C4_VM12 () Int
    0)
  (define-fun C1_VM2 () Int
    1)
  (define-fun MemProv8 () Int
    3750)
  (define-fun C4_VM4 () Int
    0)
  (define-fun C1_VM1 () Int
    0)
  (define-fun StorageProv10 () Int
    2000)
  (define-fun C4_VM9 () Int
    0)
  (define-fun PriceProv1 () Int
    128)
  (define-fun C3_VM8 () Int
    0)
  (define-fun C5_VM2 () Int
    0)
  (define-fun C4_VM6 () Int
    0)
  (define-fun PriceProv6 () Int
    128)
  (define-fun C1_VM5 () Int
    0)
  (define-fun C4_VM1 () Int
    0)
  (define-fun VM10Type () Int
    17)
  (define-fun C2_VM12 () Int
    0)
  (define-fun C2_VM10 () Int
    1)
  (define-fun C2_VM5 () Int
    0)
  (define-fun VM7Type () Int
    15)
  (define-fun PriceProv12 () Int
    128)
  (define-fun PriceProv10 () Int
    128)
  (define-fun C5_VM5 () Int
    1)
  (define-fun MemProv5 () Int
    30500)
  (define-fun MemProv7 () Int
    30500)
  (define-fun MemProv4 () Int
    30500)
  (define-fun C1_VM9 () Int
    1)
  (define-fun C5_VM3 () Int
    0)
  (define-fun C2_VM8 () Int
    0)
  (define-fun VM5Type () Int
    15)
  (define-fun StorageProv8 () Int
    2000)
  (define-fun MemProv1 () Int
    3750)
  (define-fun VM1Type () Int
    17)
  (define-fun StorageProv5 () Int
    1000)
  (define-fun C5_VM7 () Int
    0)
  (define-fun StorageProv9 () Int
    2000)
  (define-fun C1_VM12 () Int
    1)
  (define-fun C5_VM6 () Int
    0)
  (define-fun StorageProv6 () Int
    2000)
  (define-fun C4_VM8 () Int
    0)
  (define-fun C3_VM11 () Int
    0)
  (define-fun StorageProv3 () Int
    2000)
  (define-fun C4_VM10 () Int
    0)
  (define-fun VM12Type () Int
    17)
  (define-fun C2_VM7 () Int
    0)
  (define-fun C5_VM9 () Int
    0)
  (define-fun PriceProv7 () Int
    379)
  (define-fun C1_VM3 () Int
    0)
  (define-fun C2_VM11 () Int
    1)
  (define-fun StorageProv1 () Int
    2000)
  (define-fun PriceProv8 () Int
    128)
  (define-fun VM11Type () Int
    17)
  (define-fun C1_VM10 () Int
    0)
  (define-fun PriceProv2 () Int
    128)
  (define-fun C3_VM3 () Int
    0)
  (define-fun ProcProv10 () Int
    2)
  (define-fun StorageProv4 () Int
    1000)
  (define-fun ProcProv11 () Int
    2)
  (define-fun C1_VM6 () Int
    1)
  (define-fun MemProv11 () Int
    3750)
  (define-fun MemProv6 () Int
    3750)
  (define-fun StorageProv7 () Int
    1000)
  (define-fun C3_VM5 () Int
    0)
  (define-fun VM9Type () Int
    17)
  (define-fun C4_VM5 () Int
    0)
  (define-fun C5_VM4 () Int
    1)
  (define-fun ProcProv12 () Int
    2)
  (define-fun C3_VM9 () Int
    0)
  (define-fun C4_VM3 () Int
    0)
  (define-fun PriceProv3 () Int
    128)
  (define-fun C2_VM1 () Int
    1)
  (define-fun ProcProv6 () Int
    2)
  (define-fun MemProv10 () Int
    3750)
  (define-fun MemProv3 () Int
    3750)
  (define-fun C5_VM12 () Int
    0)
  (define-fun C2_VM6 () Int
    0)
  (define-fun ProcProv1 () Int
    2)
  (define-fun C4_VM2 () Int
    0)
  (define-fun C3_VM4 () Int
    0)
  (define-fun StorageProv12 () Int
    2000)
  (define-fun C2_VM4 () Int
    0)
  (define-fun C5_VM8 () Int
    0)
  (define-fun C5_VM10 () Int
    0)
  (define-fun VM4Type () Int
    15)
  (define-fun ProcProv3 () Int
    2)
  (define-fun MemProv2 () Int
    3750)
  (define-fun VM8Type () Int
    17)
  (define-fun C1_VM7 () Int
    0)
)
(objectives
 ( 30)
 ((+ 0
   PriceProv1
   PriceProv2
   PriceProv3
   PriceProv4
   PriceProv5
   PriceProv6
   PriceProv7
   PriceProv8
   PriceProv9
   PriceProv10
   PriceProv11
   PriceProv12) 2289)
)
(:added-eqs                   1176737
 :arith-eq-adapter            223076
 :arith-bound-propagations-lp 3752
 :arith-conflicts             74
 :arith-diseq                 890840
 :arith-fixed-eqs             35471
 :arith-lower                 1234094
 :arith-make-feasible         83769
 :arith-max-columns           198
 :arith-max-rows              38
 :arith-upper                 680803
 :binary-propagations         4806495
 :conflicts                   16002
 :decisions                   119987
 :del-clause                  376170
 :final-checks                173
 :max-memory                  47.18
 :maxsat-cores                12
 :memory                      47.18
 :minimized-lits              84795
 :mk-bool-var                 376864
 :mk-clause                   378481
 :mk-clause-binary            6343
 :num-allocs                  915609468
 :num-checks                  385
 :pb-conflicts                2701
 :pb-predicates               439
 :pb-propagations             53448
 :pb-resolves                 1566
 :propagations                7981047
 :restarts                    61
 :rlimit-count                35254240
 :time                        1.65
 :total-time                  1.66)
